% demand
num_movements = 17;
loading_factor = [800, 1650, 1350, 800, 1750, 1150, 900, 1250, 1100, 1650, 950, 950, 900, 1650, 1250, 1800, 1200];
pickup_time = [0, 0, 0, 0, 0, 2, 2, 2, 2, 2, 2, 4, 6, 7, 7, 7, 7];
delivery_time = [1, 1, 1, 1, 2, 7, 5, 7, 8, 7, 3, 7, 7, 8, 8, 8, 8];

% transporter definition
total_capacity = 7000;
num_decks = 3;
capacity = [3000, 1000, 3000];

% ways out of decks
num_ways_out = 1;
paths_out = array3d(decks, ways_out, decks, [
% ways out of deck d1
2, 3, 0, 

% ways out of deck d2
3, 0, 0, 

% ways out of deck d3
0, 0, 0,	

]);

